\ENCODING=ISO-8859-1
\Problem name: ilog.cplex

Minimize
 obj1: 96066 x1 + 109716 x2 + 98485 x3 + 90299 x4 + 97040 x5 + 92259 x6
       + 91617 x7 + 95959 x8 + 92233 x9 + 98368 x10 + 90049 x11 + 97448 x12
       + 94266 x13 + 101354 x14 + 107966 x15 + 100149 x16 + 98126 x17
       + 100646 x18 + 92924 x19 + 107895 x20 + 98664 x21 + 102507 x22
       + 100126 x23 + 91810 x24 + 93215 x25 + 108197 x26 + 93958 x27
       + 100929 x28 + 90105 x29 + 102156 x30 + 93093 x31 + 105647 x32
       + 101289 x33 + 102316 x34 + 108287 x35 + 102344 x36 + 90554 x37
       + 104857 x38 + 100464 x39 + 95580 x40 + 97453 x41 + 106476 x42
       + 90779 x43 + 92827 x44 + 101554 x45 + 98717 x46 + 104022 x47
       + 95958 x48 + 91594 x49 + 100918 x50 + 91036 x51 + 105176 x52
       + 108806 x53 + 92768 x54 + 106883 x55 + 105003 x56 + 98044 x57
       + 97640 x58 + 104270 x59 + 106430 x60 + 108421 x61 + 103952 x62
       + 93061 x63 + 91856 x64 + 103423 x65 + 100773 x66 + 107365 x67
       + 106100 x68 + 99654 x69 + 101629 x70 + 101839 x71 + 108598 x72
       + 101052 x73 + 99579 x74 + 102559 x75 + 94475 x76 + 91203 x77
       + 99649 x78 + 97917 x79 + 106337 x80 + 109228 x81 + 96550 x82
       + 92711 x83 + 104634 x84 + 90242 x85 + 101819 x86 + 106880 x87
       + 95986 x88 + 97449 x89 + 96465 x90 + 99261 x91 + 96104 x92 + 109724 x93
       + 92682 x94 + 96306 x95 + 106741 x96 + 95860 x97 + 91367 x98
       + 105871 x99 + 94588 x100 + 94098 x101 + 108729 x102 + 97283 x103
       + 107850 x104 + 95939 x105 + 98791 x106 + 94917 x107 + 106749 x108
       + 108096 x109 + 95784 x110 + 104628 x111 + 92422 x112 + 107607 x113
       + 107751 x114 + 94697 x115 + 104778 x116 + 97507 x117 + 90248 x118
       + 109261 x119 + 99925 x120 + 105742 x121 + 90423 x122 + 90085 x123
       + 108462 x124 + 90665 x125 + 107386 x126 + 96143 x127 + 101021 x128
       + 91174 x129 + 104442 x130 + 99143 x131 + 90898 x132 + 98637 x133
       + 102402 x134 + 92538 x135 + 109983 x136 + 92456 x137 + 107397 x138
       + 106593 x139 + 101307 x140 + 91449 x141 + 101507 x142 + 92724 x143
       + 99156 x144 + 109192 x145 + 109987 x146 + 106567 x147 + 96033 x148
       + 103053 x149 + 94997 x150 + 92475 x151 + 99177 x152 + 92702 x153
       + 105762 x154 + 106158 x155 + 106094 x156 + 98353 x157 + 95146 x158
       + 100751 x159 + 95350 x160 + 105121 x161 + 99828 x162 + 94831 x163
       + 100446 x164 + 106357 x165 + 91610 x166 + 103356 x167 + 109370 x168
       + 101475 x169 + 108890 x170 + 99462 x171 + 92134 x172 + 98833 x173
       + 107836 x174 + 95769 x175 + 103598 x176 + 93425 x177 + 96984 x178
       + 106475 x179 + 90576 x180 + 101487 x181 + 92326 x182 + 103316 x183
       + 94808 x184 + 108674 x185 + 107820 x186 + 100780 x187 + 101453 x188
       + 103627 x189 + 99700 x190 + 98991 x191 + 96604 x192 + 104567 x193
       + 92023 x194 + 96258 x195 + 106645 x196 + 102955 x197 + 105638 x198
       + 97558 x199 + 97360 x200 + 91291 x201 + 92138 x202 + 107701 x203
       + 92228 x204 + 98146 x205 + 90520 x206 + 107521 x207 + 109454 x208
       + 104942 x209 + 97250 x210 + 90275 x211 + 105262 x212 + 100086 x213
       + 107198 x214 + 100515 x215 + 105320 x216 + 108742 x217 + 103159 x218
       + 96805 x219 + 108812 x220 + 95606 x221 + 103550 x222 + 101809 x223
       + 90676 x224 + 105601 x225 + 105933 x226 + 97546 x227 + 97343 x228
       + 103023 x229 + 106376 x230 + 93477 x231 + 108509 x232 + 95316 x233
       + 97348 x234 + 106026 x235 + 97947 x236 + 108925 x237 + 90118 x238
       + 104732 x239 + 97467 x240 + 101573 x241 + 91582 x242 + 102424 x243
       + 109902 x244 + 107804 x245 + 109981 x246 + 94651 x247 + 109334 x248
       + 102820 x249 + 109150 x250 + 96725 x251 + 108486 x252 + 97100 x253
       + 103919 x254 + 98195 x255 + 92220 x256 + 103395 x257 + 101093 x258
       + 95700 x259 + 98290 x260 + 97464 x261 + 90572 x262 + 98173 x263
       + 105490 x264 + 91110 x265 + 106188 x266 + 97719 x267 + 103527 x268
       + 96578 x269 + 93441 x270 + 96044 x271 + 102828 x272 + 97489 x273
       + 106866 x274 + 94323 x275 + 92397 x276 + 92880 x277 + 93941 x278
       + 90022 x279 + 94567 x280 + 101962 x281 + 106948 x282 + 95047 x283
       + 109566 x284 + 95836 x285 + 108635 x286 + 100981 x287 + 92544 x288
       + 91636 x289 + 97502 x290 + 109229 x291 + 101003 x292 + 104420 x293
       + 94214 x294 + 96580 x295 + 91577 x296 + 102644 x297 + 101897 x298
       + 99973 x299 + 91639 x300 + 103472 x301 + 101339 x302 + 93715 x303
       + 102820 x304 + 96529 x305 + 106543 x306 + 99797 x307 + 105747 x308
       + 106782 x309 + 101679 x310 + 102006 x311 + 106729 x312 + 91253 x313
       + 99751 x314 + 100523 x315 + 100444 x316 + 100505 x317 + 100124 x318
       + 103307 x319 + 99912 x320 + 92220 x321 + 104291 x322 + 108737 x323
       + 90629 x324 + 94938 x325 + 94363 x326 + 104900 x327 + 108142 x328
       + 102615 x329 + 92624 x330 + 102866 x331 + 90687 x332 + 97879 x333
       + 97221 x334 + 108754 x335 + 98075 x336 + 104663 x337 + 96450 x338
       + 102575 x339 + 108180 x340 + 99390 x341 + 102047 x342 + 90602 x343
       + 103195 x344 + 103935 x345 + 90540 x346 + 92390 x347 + 99236 x348
       + 103314 x349 + 100940 x350 + 106922 x351 + 101529 x352 + 97302 x353
       + 98754 x354 + 102116 x355 + 101111 x356 + 106554 x357 + 93807 x358
       + 108268 x359 + 106867 x360 + 105315 x361 + 109724 x362 + 97756 x363
       + 97774 x364 + 102403 x365 + 108498 x366 + 94293 x367 + 91003 x368
       + 106391 x369 + 106162 x370 + 98672 x371 + 93808 x372 + 90041 x373
       + 102672 x374 + 100000 x375 + 92383 x376 + 93087 x377 + 104515 x378
       + 97093 x379 + 91508 x380 + 97912 x381 + 93499 x382 + 109607 x383
       + 109423 x384 + 100340 x385 + 91101 x386 + 103926 x387 + 98682 x388
       + 106063 x389 + 109356 x390 + 94971 x391 + 105591 x392 + 92134 x393
       + 106450 x394 + 91811 x395 + 98382 x396 + 102538 x397 + 98049 x398
       + 92345 x399 + 107404 x400 + 109398 x401 + 102992 x402 + 92685 x403
       + 96295 x404 + 92286 x405 + 92389 x406 + 100101 x407 + 104403 x408
       + 96972 x409 + 96125 x410 + 105904 x411 + 94605 x412 + 108244 x413
       + 103070 x414 + 102312 x415 + 93141 x416 + 98178 x417 + 102501 x418
       + 108182 x419 + 92994 x420 + 92317 x421 + 103521 x422 + 97876 x423
       + 108888 x424 + 91422 x425 + 99342 x426 + 90892 x427 + 103483 x428
       + 99745 x429 + 99494 x430 + 101895 x431 + 104382 x432 + 104524 x433
       + 108854 x434 + 99841 x435 + 95230 x436 + 100821 x437 + 108776 x438
       + 99624 x439 + 98407 x440 + 100820 x441 + 92698 x442 + 109977 x443
       + 91664 x444 + 107364 x445 + 106241 x446 + 107340 x447 + 96574 x448
       + 107757 x449 + 100142 x450 + 103265 x451 + 99817 x452 + 108526 x453
       + 97408 x454 + 102510 x455 + 106398 x456 + 106206 x457 + 98689 x458
       + 96591 x459 + 107603 x460 + 97878 x461 + 93392 x462 + 91479 x463
       + 106146 x464 + 96516 x465 + 101949 x466 + 106710 x467 + 92312 x468
       + 106243 x469 + 103619 x470 + 103821 x471 + 92887 x472 + 105538 x473
       + 109249 x474 + 90852 x475 + 93122 x476 + 97648 x477 + 103340 x478
       + 100152 x479 + 108176 x480 + 103566 x481 + 101006 x482 + 100644 x483
       + 102691 x484 + 94691 x485 + 97941 x486 + 90278 x487 + 104969 x488
       + 94654 x489 + 99644 x490 + 99537 x491 + 95695 x492 + 102744 x493
       + 99936 x494 + 102715 x495 + 90229 x496 + 105043 x497 + 98172 x498
       + 100059 x499 + 90497 x500 + 392943 x501 + 407398 x502 + 393149 x503
       + 394011 x504 + 366070 x505 + 368438 x506 + 415112 x507 + 426369 x508
       + 376638 x509 + 407355 x510 + 410471 x511 + 405604 x512 + 395263 x513
       + 399495 x514 + 427980 x515 + 410710 x516 + 412264 x517 + 433364 x518
       + 436931 x519 + 416103 x520 + 380957 x521 + 402750 x522 + 366255 x523
       + 400361 x524 + 409525 x525 + 422052 x526 + 438174 x527 + 393820 x528
       + 415480 x529 + 401741 x530 + 392973 x531 + 404164 x532 + 383688 x533
       + 432205 x534 + 382138 x535 + 414232 x536 + 423364 x537 + 363048 x538
       + 415312 x539 + 368858 x540 + 401416 x541 + 411255 x542 + 402232 x543
       + 377619 x544 + 438952 x545 + 385457 x546 + 394018 x547 + 417948 x548
       + 394739 x549 + 269599 x550
Subject To
 c1:   x10 + x17 + x20 - x34 - x35 - x40  = 0
 c2:   x60 + x67 + x70 - x84 - x85 - x90  = 0
 c3:   x110 + x117 + x120 - x134 - x135 - x140  = 0
 c4:   x160 + x167 + x170 - x184 - x185 - x190  = 0
 c5:   x210 + x217 + x220 - x234 - x235 - x240  = -1
 c6:   x260 + x267 + x270 - x284 - x285 - x290  = 0
 c7:   x310 + x317 + x320 - x334 - x335 - x340  = 0
 c8:   x360 + x367 + x370 - x384 - x385 - x390  = 0
 c9:   x410 + x417 + x420 - x434 - x435 - x440  = 0
 c10:  x460 + x467 + x470 - x484 - x485 - x490  = 0
 c11:  x8 - x12 - x16 + x42 + x49  = 0
 c12:  x58 - x62 - x66 + x92 + x99  = 0
 c13:  x108 - x112 - x116 + x142 + x149  = 0
 c14:  x158 - x162 - x166 + x192 + x199  = 0
 c15:  x208 - x212 - x216 + x242 + x249  = 0
 c16:  x258 - x262 - x266 + x292 + x299  = 0
 c17:  x308 - x312 - x316 + x342 + x349  = 0
 c18:  x358 - x362 - x366 + x392 + x399  = 0
 c19:  x408 - x412 - x416 + x442 + x449  = 0
 c20:  x458 - x462 - x466 + x492 + x499  = 0
 c21:  x3 + x5 - x10 + x13 + x18 + x19 - x31  = 1
 c22:  x53 + x55 - x60 + x63 + x68 + x69 - x81  = 1
 c23:  x103 + x105 - x110 + x113 + x118 + x119 - x131  = 0
 c24:  x153 + x155 - x160 + x163 + x168 + x169 - x181  = -1
 c25:  x203 + x205 - x210 + x213 + x218 + x219 - x231  = 1
 c26:  x253 + x255 - x260 + x263 + x268 + x269 - x281  = -1
 c27:  x303 + x305 - x310 + x313 + x318 + x319 - x331  = 0
 c28:  x353 + x355 - x360 + x363 + x368 + x369 - x381  = 0
 c29:  x403 + x405 - x410 + x413 + x418 + x419 - x431  = 1
 c30:  x453 + x455 - x460 + x463 + x468 + x469 - x481  = 0
 c31:  - x3 - x7 + x9 + x11 - x22 - x26 - x32 - x33 + x34 - x39 + x43 - x50
        = 0
 c32:  - x53 - x57 + x59 + x61 - x72 - x76 - x82 - x83 + x84 - x89 + x93 - x100
        = 0
 c33:  - x103 - x107 + x109 + x111 - x122 - x126 - x132 - x133 + x134 - x139
       + x143 - x150  = 0
 c34:  - x153 - x157 + x159 + x161 - x172 - x176 - x182 - x183 + x184 - x189
       + x193 - x200  = 0
 c35:  - x203 - x207 + x209 + x211 - x222 - x226 - x232 - x233 + x234 - x239
       + x243 - x250  = 0
 c36:  - x253 - x257 + x259 + x261 - x272 - x276 - x282 - x283 + x284 - x289
       + x293 - x300  = 0
 c37:  - x303 - x307 + x309 + x311 - x322 - x326 - x332 - x333 + x334 - x339
       + x343 - x350  = 0
 c38:  - x353 - x357 + x359 + x361 - x372 - x376 - x382 - x383 + x384 - x389
       + x393 - x400  = 1
 c39:  - x403 - x407 + x409 + x411 - x422 - x426 - x432 - x433 + x434 - x439
       + x443 - x450  = 0
 c40:  - x453 - x457 + x459 + x461 - x472 - x476 - x482 - x483 + x484 - x489
       + x493 - x500  = 0
 c41:  x16 + x22 + x25 - x36 + x48  = 0
 c42:  x66 + x72 + x75 - x86 + x98  = 0
 c43:  x116 + x122 + x125 - x136 + x148  = 0
 c44:  x166 + x172 + x175 - x186 + x198  = 0
 c45:  x216 + x222 + x225 - x236 + x248  = 0
 c46:  x266 + x272 + x275 - x286 + x298  = 0
 c47:  x316 + x322 + x325 - x336 + x348  = 0
 c48:  x366 + x372 + x375 - x386 + x398  = -1
 c49:  x416 + x422 + x425 - x436 + x448  = 0
 c50:  x466 + x472 + x475 - x486 + x498  = -1
 c51:  - x8 + x24 + x37 - x46  = 0
 c52:  - x58 + x74 + x87 - x96  = 0
 c53:  - x108 + x124 + x137 - x146  = -1
 c54:  - x158 + x174 + x187 - x196  = 0
 c55:  - x208 + x224 + x237 - x246  = 0
 c56:  - x258 + x274 + x287 - x296  = 0
 c57:  - x308 + x324 + x337 - x346  = 0
 c58:  - x358 + x374 + x387 - x396  = 0
 c59:  - x408 + x424 + x437 - x446  = 0
 c60:  - x458 + x474 + x487 - x496  = 0
 c61:  - x4 + x6 - x13 + x14 + x15 - x21 + x30 - x44 + x46  = 0
 c62:  - x54 + x56 - x63 + x64 + x65 - x71 + x80 - x94 + x96  = 0
 c63:  - x104 + x106 - x113 + x114 + x115 - x121 + x130 - x144 + x146  = 0
 c64:  - x154 + x156 - x163 + x164 + x165 - x171 + x180 - x194 + x196  = 0
 c65:  - x204 + x206 - x213 + x214 + x215 - x221 + x230 - x244 + x246  = 0
 c66:  - x254 + x256 - x263 + x264 + x265 - x271 + x280 - x294 + x296  = 0
 c67:  - x304 + x306 - x313 + x314 + x315 - x321 + x330 - x344 + x346  = -1
 c68:  - x354 + x356 - x363 + x364 + x365 - x371 + x380 - x394 + x396  = 0
 c69:  - x404 + x406 - x413 + x414 + x415 - x421 + x430 - x444 + x446  = 0
 c70:  - x454 + x456 - x463 + x464 + x465 - x471 + x480 - x494 + x496  = 0
 c71:  - x1 - x2 - x11 + x12 - x25 + x26 + x28 - x38  = 0
 c72:  - x51 - x52 - x61 + x62 - x75 + x76 + x78 - x88  = -1
 c73:  - x101 - x102 - x111 + x112 - x125 + x126 + x128 - x138  = 0
 c74:  - x151 - x152 - x161 + x162 - x175 + x176 + x178 - x188  = 0
 c75:  - x201 - x202 - x211 + x212 - x225 + x226 + x228 - x238  = 0
 c76:  - x251 - x252 - x261 + x262 - x275 + x276 + x278 - x288  = 0
 c77:  - x301 - x302 - x311 + x312 - x325 + x326 + x328 - x338  = 1
 c78:  - x351 - x352 - x361 + x362 - x375 + x376 + x378 - x388  = 0
 c79:  - x401 - x402 - x411 + x412 - x425 + x426 + x428 - x438  = -1
 c80:  - x451 - x452 - x461 + x462 - x475 + x476 + x478 - x488  = 0
 c81:  - x14 - x17 + x21 - x29 + x39 - x49  = 0
 c82:  - x64 - x67 + x71 - x79 + x89 - x99  = 0
 c83:  - x114 - x117 + x121 - x129 + x139 - x149  = 1
 c84:  - x164 - x167 + x171 - x179 + x189 - x199  = 0
 c85:  - x214 - x217 + x221 - x229 + x239 - x249  = 0
 c86:  - x264 - x267 + x271 - x279 + x289 - x299  = 0
 c87:  - x314 - x317 + x321 - x329 + x339 - x349  = 0
 c88:  - x364 - x367 + x371 - x379 + x389 - x399  = 0
 c89:  - x414 - x417 + x421 - x429 + x439 - x449  = 0
 c90:  - x464 - x467 + x471 - x479 + x489 - x499  = 0
 c91:  - x24 + x32 - x41  = -1
 c92:  - x74 + x82 - x91  = 0
 c93:  - x124 + x132 - x141  = 0
 c94:  - x174 + x182 - x191  = 0
 c95:  - x224 + x232 - x241  = 0
 c96:  - x274 + x282 - x291  = 0
 c97:  - x324 + x332 - x341  = 0
 c98:  - x374 + x382 - x391  = 0
 c99:  - x424 + x432 - x441  = 0
 c100: - x474 + x482 - x491  = 1
 c101: x1 - x5 - x9 - x15 - x27 + x33 - x45  = 0
 c102: x51 - x55 - x59 - x65 - x77 + x83 - x95  = 0
 c103: x101 - x105 - x109 - x115 - x127 + x133 - x145  = 0
 c104: x151 - x155 - x159 - x165 - x177 + x183 - x195  = 1
 c105: x201 - x205 - x209 - x215 - x227 + x233 - x245  = 0
 c106: x251 - x255 - x259 - x265 - x277 + x283 - x295  = 0
 c107: x301 - x305 - x309 - x315 - x327 + x333 - x345  = 0
 c108: x351 - x355 - x359 - x365 - x377 + x383 - x395  = 0
 c109: x401 - x405 - x409 - x415 - x427 + x433 - x445  = 0
 c110: x451 - x455 - x459 - x465 - x477 + x483 - x495  = 0
 c111: - x6 - x20 - x23 + x41 - x43 + x45 + x47  = 0
 c112: - x56 - x70 - x73 + x91 - x93 + x95 + x97  = 0
 c113: - x106 - x120 - x123 + x141 - x143 + x145 + x147  = 0
 c114: - x156 - x170 - x173 + x191 - x193 + x195 + x197  = 0
 c115: - x206 - x220 - x223 + x241 - x243 + x245 + x247  = 0
 c116: - x256 - x270 - x273 + x291 - x293 + x295 + x297  = 0
 c117: - x306 - x320 - x323 + x341 - x343 + x345 + x347  = 0
 c118: - x356 - x370 - x373 + x391 - x393 + x395 + x397  = 0
 c119: - x406 - x420 - x423 + x441 - x443 + x445 + x447  = 0
 c120: - x456 - x470 - x473 + x491 - x493 + x495 + x497  = 0
 c121: x23 + x27 + x29 - x30 - x37 + x38 + x40 + x44 - x47 + x50  = 0
 c122: x73 + x77 + x79 - x80 - x87 + x88 + x90 + x94 - x97 + x100  = 0
 c123: x123 + x127 + x129 - x130 - x137 + x138 + x140 + x144 - x147 + x150  = 0
 c124: x173 + x177 + x179 - x180 - x187 + x188 + x190 + x194 - x197 + x200  = 0
 c125: x223 + x227 + x229 - x230 - x237 + x238 + x240 + x244 - x247 + x250  = 0
 c126: x273 + x277 + x279 - x280 - x287 + x288 + x290 + x294 - x297 + x300  = 0
 c127: x323 + x327 + x329 - x330 - x337 + x338 + x340 + x344 - x347 + x350  = 0
 c128: x373 + x377 + x379 - x380 - x387 + x388 + x390 + x394 - x397 + x400  = 0
 c129: x423 + x427 + x429 - x430 - x437 + x438 + x440 + x444 - x447 + x450  = 0
 c130: x473 + x477 + x479 - x480 - x487 + x488 + x490 + x494 - x497 + x500  = 0
 c131: x2 + x4 - x18 - x28 - x42  = 0
 c132: x52 + x54 - x68 - x78 - x92  = 0
 c133: x102 + x104 - x118 - x128 - x142  = 0
 c134: x152 + x154 - x168 - x178 - x192  = 0
 c135: x202 + x204 - x218 - x228 - x242  = 0
 c136: x252 + x254 - x268 - x278 - x292  = 0
 c137: x302 + x304 - x318 - x328 - x342  = 0
 c138: x352 + x354 - x368 - x378 - x392  = 0
 c139: x402 + x404 - x418 - x428 - x442  = 0
 c140: x452 + x454 - x468 - x478 - x492  = 0
 c141: x7 - x19 + x31 + x35 + x36 - x48  = 0
 c142: x57 - x69 + x81 + x85 + x86 - x98  = 0
 c143: x107 - x119 + x131 + x135 + x136 - x148  = 0
 c144: x157 - x169 + x181 + x185 + x186 - x198  = 0
 c145: x207 - x219 + x231 + x235 + x236 - x248  = 0
 c146: x257 - x269 + x281 + x285 + x286 - x298  = 1
 c147: x307 - x319 + x331 + x335 + x336 - x348  = 0
 c148: x357 - x369 + x381 + x385 + x386 - x398  = 0
 c149: x407 - x419 + x431 + x435 + x436 - x448  = 0
 c150: x457 - x469 + x481 + x485 + x486 - x498  = 0
 c151: 4 x1 + 4 x51 + 4 x101 + 4 x151 + 4 x201 + 4 x251 + 4 x301 + 4 x351
       + 4 x401 + 4 x451 - 19 x501 <= 0
 c152: 4 x2 + 4 x52 + 4 x102 + 4 x152 + 4 x202 + 4 x252 + 4 x302 + 4 x352
       + 4 x402 + 4 x452 - 19 x502 <= 0
 c153: 4 x3 + 4 x53 + 4 x103 + 4 x153 + 4 x203 + 4 x253 + 4 x303 + 4 x353
       + 4 x403 + 4 x453 - 21 x503 <= 0
 c154: 4 x4 + 4 x54 + 4 x104 + 4 x154 + 4 x204 + 4 x254 + 4 x304 + 4 x354
       + 4 x404 + 4 x454 - 21 x504 <= 0
 c155: 4 x5 + 4 x55 + 4 x105 + 4 x155 + 4 x205 + 4 x255 + 4 x305 + 4 x355
       + 4 x405 + 4 x455 - 20 x505 <= 0
 c156: 4 x6 + 4 x56 + 4 x106 + 4 x156 + 4 x206 + 4 x256 + 4 x306 + 4 x356
       + 4 x406 + 4 x456 - 22 x506 <= 0
 c157: 4 x7 + 4 x57 + 4 x107 + 4 x157 + 4 x207 + 4 x257 + 4 x307 + 4 x357
       + 4 x407 + 4 x457 - 22 x507 <= 0
 c158: 4 x8 + 4 x58 + 4 x108 + 4 x158 + 4 x208 + 4 x258 + 4 x308 + 4 x358
       + 4 x408 + 4 x458 - 20 x508 <= 0
 c159: 4 x9 + 4 x59 + 4 x109 + 4 x159 + 4 x209 + 4 x259 + 4 x309 + 4 x359
       + 4 x409 + 4 x459 - 19 x509 <= 0
 c160: 4 x10 + 4 x60 + 4 x110 + 4 x160 + 4 x210 + 4 x260 + 4 x310 + 4 x360
       + 4 x410 + 4 x460 - 20 x510 <= 0
 c161: 4 x11 + 4 x61 + 4 x111 + 4 x161 + 4 x211 + 4 x261 + 4 x311 + 4 x361
       + 4 x411 + 4 x461 - 21 x511 <= 0
 c162: 4 x12 + 4 x62 + 4 x112 + 4 x162 + 4 x212 + 4 x262 + 4 x312 + 4 x362
       + 4 x412 + 4 x462 - 21 x512 <= 0
 c163: 4 x13 + 4 x63 + 4 x113 + 4 x163 + 4 x213 + 4 x263 + 4 x313 + 4 x363
       + 4 x413 + 4 x463 - 20 x513 <= 0
 c164: 4 x14 + 4 x64 + 4 x114 + 4 x164 + 4 x214 + 4 x264 + 4 x314 + 4 x364
       + 4 x414 + 4 x464 - 20 x514 <= 0
 c165: 4 x15 + 4 x65 + 4 x115 + 4 x165 + 4 x215 + 4 x265 + 4 x315 + 4 x365
       + 4 x415 + 4 x465 - 20 x515 <= 0
 c166: 4 x16 + 4 x66 + 4 x116 + 4 x166 + 4 x216 + 4 x266 + 4 x316 + 4 x366
       + 4 x416 + 4 x466 - 20 x516 <= 0
 c167: 4 x17 + 4 x67 + 4 x117 + 4 x167 + 4 x217 + 4 x267 + 4 x317 + 4 x367
       + 4 x417 + 4 x467 - 20 x517 <= 0
 c168: 4 x18 + 4 x68 + 4 x118 + 4 x168 + 4 x218 + 4 x268 + 4 x318 + 4 x368
       + 4 x418 + 4 x468 - 19 x518 <= 0
 c169: 4 x19 + 4 x69 + 4 x119 + 4 x169 + 4 x219 + 4 x269 + 4 x319 + 4 x369
       + 4 x419 + 4 x469 - 22 x519 <= 0
 c170: 4 x20 + 4 x70 + 4 x120 + 4 x170 + 4 x220 + 4 x270 + 4 x320 + 4 x370
       + 4 x420 + 4 x470 - 19 x520 <= 0
 c171: 4 x21 + 4 x71 + 4 x121 + 4 x171 + 4 x221 + 4 x271 + 4 x321 + 4 x371
       + 4 x421 + 4 x471 - 20 x521 <= 0
 c172: 4 x22 + 4 x72 + 4 x122 + 4 x172 + 4 x222 + 4 x272 + 4 x322 + 4 x372
       + 4 x422 + 4 x472 - 22 x522 <= 0
 c173: 4 x23 + 4 x73 + 4 x123 + 4 x173 + 4 x223 + 4 x273 + 4 x323 + 4 x373
       + 4 x423 + 4 x473 - 19 x523 <= 0
 c174: 4 x24 + 4 x74 + 4 x124 + 4 x174 + 4 x224 + 4 x274 + 4 x324 + 4 x374
       + 4 x424 + 4 x474 - 20 x524 <= 0
 c175: 4 x25 + 4 x75 + 4 x125 + 4 x175 + 4 x225 + 4 x275 + 4 x325 + 4 x375
       + 4 x425 + 4 x475 - 21 x525 <= 0
 c176: 4 x26 + 4 x76 + 4 x126 + 4 x176 + 4 x226 + 4 x276 + 4 x326 + 4 x376
       + 4 x426 + 4 x476 - 18 x526 <= 0
 c177: 4 x27 + 4 x77 + 4 x127 + 4 x177 + 4 x227 + 4 x277 + 4 x327 + 4 x377
       + 4 x427 + 4 x477 - 22 x527 <= 0
 c178: 4 x28 + 4 x78 + 4 x128 + 4 x178 + 4 x228 + 4 x278 + 4 x328 + 4 x378
       + 4 x428 + 4 x478 - 21 x528 <= 0
 c179: 4 x29 + 4 x79 + 4 x129 + 4 x179 + 4 x229 + 4 x279 + 4 x329 + 4 x379
       + 4 x429 + 4 x479 - 22 x529 <= 0
 c180: 4 x30 + 4 x80 + 4 x130 + 4 x180 + 4 x230 + 4 x280 + 4 x330 + 4 x380
       + 4 x430 + 4 x480 - 19 x530 <= 0
 c181: 4 x31 + 4 x81 + 4 x131 + 4 x181 + 4 x231 + 4 x281 + 4 x331 + 4 x381
       + 4 x431 + 4 x481 - 20 x531 <= 0
 c182: 4 x32 + 4 x82 + 4 x132 + 4 x182 + 4 x232 + 4 x282 + 4 x332 + 4 x382
       + 4 x432 + 4 x482 - 21 x532 <= 0
 c183: 4 x33 + 4 x83 + 4 x133 + 4 x183 + 4 x233 + 4 x283 + 4 x333 + 4 x383
       + 4 x433 + 4 x483 - 21 x533 <= 0
 c184: 4 x34 + 4 x84 + 4 x134 + 4 x184 + 4 x234 + 4 x284 + 4 x334 + 4 x384
       + 4 x434 + 4 x484 - 20 x534 <= 0
 c185: 4 x35 + 4 x85 + 4 x135 + 4 x185 + 4 x235 + 4 x285 + 4 x335 + 4 x385
       + 4 x435 + 4 x485 - 19 x535 <= 0
 c186: 4 x36 + 4 x86 + 4 x136 + 4 x186 + 4 x236 + 4 x286 + 4 x336 + 4 x386
       + 4 x436 + 4 x486 - 21 x536 <= 0
 c187: 4 x37 + 4 x87 + 4 x137 + 4 x187 + 4 x237 + 4 x287 + 4 x337 + 4 x387
       + 4 x437 + 4 x487 - 21 x537 <= 0
 c188: 4 x38 + 4 x88 + 4 x138 + 4 x188 + 4 x238 + 4 x288 + 4 x338 + 4 x388
       + 4 x438 + 4 x488 - 22 x538 <= 0
 c189: 4 x39 + 4 x89 + 4 x139 + 4 x189 + 4 x239 + 4 x289 + 4 x339 + 4 x389
       + 4 x439 + 4 x489 - 20 x539 <= 0
 c190: 4 x40 + 4 x90 + 4 x140 + 4 x190 + 4 x240 + 4 x290 + 4 x340 + 4 x390
       + 4 x440 + 4 x490 - 21 x540 <= 0
 c191: 4 x41 + 4 x91 + 4 x141 + 4 x191 + 4 x241 + 4 x291 + 4 x341 + 4 x391
       + 4 x441 + 4 x491 - 21 x541 <= 0
 c192: 4 x42 + 4 x92 + 4 x142 + 4 x192 + 4 x242 + 4 x292 + 4 x342 + 4 x392
       + 4 x442 + 4 x492 - 19 x542 <= 0
 c193: 4 x43 + 4 x93 + 4 x143 + 4 x193 + 4 x243 + 4 x293 + 4 x343 + 4 x393
       + 4 x443 + 4 x493 - 19 x543 <= 0
 c194: 4 x44 + 4 x94 + 4 x144 + 4 x194 + 4 x244 + 4 x294 + 4 x344 + 4 x394
       + 4 x444 + 4 x494 - 20 x544 <= 0
 c195: 4 x45 + 4 x95 + 4 x145 + 4 x195 + 4 x245 + 4 x295 + 4 x345 + 4 x395
       + 4 x445 + 4 x495 - 20 x545 <= 0
 c196: 4 x46 + 4 x96 + 4 x146 + 4 x196 + 4 x246 + 4 x296 + 4 x346 + 4 x396
       + 4 x446 + 4 x496 - 21 x546 <= 0
 c197: 4 x47 + 4 x97 + 4 x147 + 4 x197 + 4 x247 + 4 x297 + 4 x347 + 4 x397
       + 4 x447 + 4 x497 - 19 x547 <= 0
 c198: 4 x48 + 4 x98 + 4 x148 + 4 x198 + 4 x248 + 4 x298 + 4 x348 + 4 x398
       + 4 x448 + 4 x498 - 20 x548 <= 0
 c199: 4 x49 + 4 x99 + 4 x149 + 4 x199 + 4 x249 + 4 x299 + 4 x349 + 4 x399
       + 4 x449 + 4 x499 - 22 x549 <= 0
 c200: 4 x50 + 4 x100 + 4 x150 + 4 x200 + 4 x250 + 4 x300 + 4 x350 + 4 x400
       + 4 x450 + 4 x500 - 4 x550 <= 0
Bounds
 0 <= x1 <= 1
 0 <= x2 <= 1
 0 <= x3 <= 1
 0 <= x4 <= 1
 0 <= x5 <= 1
 0 <= x6 <= 1
 0 <= x7 <= 1
 0 <= x8 <= 1
 0 <= x9 <= 1
 0 <= x10 <= 1
 0 <= x11 <= 1
 0 <= x12 <= 1
 0 <= x13 <= 1
 0 <= x14 <= 1
 0 <= x15 <= 1
 0 <= x16 <= 1
 0 <= x17 <= 1
 0 <= x18 <= 1
 0 <= x19 <= 1
 0 <= x20 <= 1
 0 <= x21 <= 1
 0 <= x22 <= 1
 0 <= x23 <= 1
 0 <= x24 <= 1
 0 <= x25 <= 1
 0 <= x26 <= 1
 0 <= x27 <= 1
 0 <= x28 <= 1
 0 <= x29 <= 1
 0 <= x30 <= 1
 0 <= x31 <= 1
 0 <= x32 <= 1
 0 <= x33 <= 1
 0 <= x34 <= 1
 0 <= x35 <= 1
 0 <= x36 <= 1
 0 <= x37 <= 1
 0 <= x38 <= 1
 0 <= x39 <= 1
 0 <= x40 <= 1
 0 <= x41 <= 1
 0 <= x42 <= 1
 0 <= x43 <= 1
 0 <= x44 <= 1
 0 <= x45 <= 1
 0 <= x46 <= 1
 0 <= x47 <= 1
 0 <= x48 <= 1
 0 <= x49 <= 1
 0 <= x50 <= 1
 0 <= x51 <= 1
 0 <= x52 <= 1
 0 <= x53 <= 1
 0 <= x54 <= 1
 0 <= x55 <= 1
 0 <= x56 <= 1
 0 <= x57 <= 1
 0 <= x58 <= 1
 0 <= x59 <= 1
 0 <= x60 <= 1
 0 <= x61 <= 1
 0 <= x62 <= 1
 0 <= x63 <= 1
 0 <= x64 <= 1
 0 <= x65 <= 1
 0 <= x66 <= 1
 0 <= x67 <= 1
 0 <= x68 <= 1
 0 <= x69 <= 1
 0 <= x70 <= 1
 0 <= x71 <= 1
 0 <= x72 <= 1
 0 <= x73 <= 1
 0 <= x74 <= 1
 0 <= x75 <= 1
 0 <= x76 <= 1
 0 <= x77 <= 1
 0 <= x78 <= 1
 0 <= x79 <= 1
 0 <= x80 <= 1
 0 <= x81 <= 1
 0 <= x82 <= 1
 0 <= x83 <= 1
 0 <= x84 <= 1
 0 <= x85 <= 1
 0 <= x86 <= 1
 0 <= x87 <= 1
 0 <= x88 <= 1
 0 <= x89 <= 1
 0 <= x90 <= 1
 0 <= x91 <= 1
 0 <= x92 <= 1
 0 <= x93 <= 1
 0 <= x94 <= 1
 0 <= x95 <= 1
 0 <= x96 <= 1
 0 <= x97 <= 1
 0 <= x98 <= 1
 0 <= x99 <= 1
 0 <= x100 <= 1
 0 <= x101 <= 1
 0 <= x102 <= 1
 0 <= x103 <= 1
 0 <= x104 <= 1
 0 <= x105 <= 1
 0 <= x106 <= 1
 0 <= x107 <= 1
 0 <= x108 <= 1
 0 <= x109 <= 1
 0 <= x110 <= 1
 0 <= x111 <= 1
 0 <= x112 <= 1
 0 <= x113 <= 1
 0 <= x114 <= 1
 0 <= x115 <= 1
 0 <= x116 <= 1
 0 <= x117 <= 1
 0 <= x118 <= 1
 0 <= x119 <= 1
 0 <= x120 <= 1
 0 <= x121 <= 1
 0 <= x122 <= 1
 0 <= x123 <= 1
 0 <= x124 <= 1
 0 <= x125 <= 1
 0 <= x126 <= 1
 0 <= x127 <= 1
 0 <= x128 <= 1
 0 <= x129 <= 1
 0 <= x130 <= 1
 0 <= x131 <= 1
 0 <= x132 <= 1
 0 <= x133 <= 1
 0 <= x134 <= 1
 0 <= x135 <= 1
 0 <= x136 <= 1
 0 <= x137 <= 1
 0 <= x138 <= 1
 0 <= x139 <= 1
 0 <= x140 <= 1
 0 <= x141 <= 1
 0 <= x142 <= 1
 0 <= x143 <= 1
 0 <= x144 <= 1
 0 <= x145 <= 1
 0 <= x146 <= 1
 0 <= x147 <= 1
 0 <= x148 <= 1
 0 <= x149 <= 1
 0 <= x150 <= 1
 0 <= x151 <= 1
 0 <= x152 <= 1
 0 <= x153 <= 1
 0 <= x154 <= 1
 0 <= x155 <= 1
 0 <= x156 <= 1
 0 <= x157 <= 1
 0 <= x158 <= 1
 0 <= x159 <= 1
 0 <= x160 <= 1
 0 <= x161 <= 1
 0 <= x162 <= 1
 0 <= x163 <= 1
 0 <= x164 <= 1
 0 <= x165 <= 1
 0 <= x166 <= 1
 0 <= x167 <= 1
 0 <= x168 <= 1
 0 <= x169 <= 1
 0 <= x170 <= 1
 0 <= x171 <= 1
 0 <= x172 <= 1
 0 <= x173 <= 1
 0 <= x174 <= 1
 0 <= x175 <= 1
 0 <= x176 <= 1
 0 <= x177 <= 1
 0 <= x178 <= 1
 0 <= x179 <= 1
 0 <= x180 <= 1
 0 <= x181 <= 1
 0 <= x182 <= 1
 0 <= x183 <= 1
 0 <= x184 <= 1
 0 <= x185 <= 1
 0 <= x186 <= 1
 0 <= x187 <= 1
 0 <= x188 <= 1
 0 <= x189 <= 1
 0 <= x190 <= 1
 0 <= x191 <= 1
 0 <= x192 <= 1
 0 <= x193 <= 1
 0 <= x194 <= 1
 0 <= x195 <= 1
 0 <= x196 <= 1
 0 <= x197 <= 1
 0 <= x198 <= 1
 0 <= x199 <= 1
 0 <= x200 <= 1
 0 <= x201 <= 1
 0 <= x202 <= 1
 0 <= x203 <= 1
 0 <= x204 <= 1
 0 <= x205 <= 1
 0 <= x206 <= 1
 0 <= x207 <= 1
 0 <= x208 <= 1
 0 <= x209 <= 1
 0 <= x210 <= 1
 0 <= x211 <= 1
 0 <= x212 <= 1
 0 <= x213 <= 1
 0 <= x214 <= 1
 0 <= x215 <= 1
 0 <= x216 <= 1
 0 <= x217 <= 1
 0 <= x218 <= 1
 0 <= x219 <= 1
 0 <= x220 <= 1
 0 <= x221 <= 1
 0 <= x222 <= 1
 0 <= x223 <= 1
 0 <= x224 <= 1
 0 <= x225 <= 1
 0 <= x226 <= 1
 0 <= x227 <= 1
 0 <= x228 <= 1
 0 <= x229 <= 1
 0 <= x230 <= 1
 0 <= x231 <= 1
 0 <= x232 <= 1
 0 <= x233 <= 1
 0 <= x234 <= 1
 0 <= x235 <= 1
 0 <= x236 <= 1
 0 <= x237 <= 1
 0 <= x238 <= 1
 0 <= x239 <= 1
 0 <= x240 <= 1
 0 <= x241 <= 1
 0 <= x242 <= 1
 0 <= x243 <= 1
 0 <= x244 <= 1
 0 <= x245 <= 1
 0 <= x246 <= 1
 0 <= x247 <= 1
 0 <= x248 <= 1
 0 <= x249 <= 1
 0 <= x250 <= 1
 0 <= x251 <= 1
 0 <= x252 <= 1
 0 <= x253 <= 1
 0 <= x254 <= 1
 0 <= x255 <= 1
 0 <= x256 <= 1
 0 <= x257 <= 1
 0 <= x258 <= 1
 0 <= x259 <= 1
 0 <= x260 <= 1
 0 <= x261 <= 1
 0 <= x262 <= 1
 0 <= x263 <= 1
 0 <= x264 <= 1
 0 <= x265 <= 1
 0 <= x266 <= 1
 0 <= x267 <= 1
 0 <= x268 <= 1
 0 <= x269 <= 1
 0 <= x270 <= 1
 0 <= x271 <= 1
 0 <= x272 <= 1
 0 <= x273 <= 1
 0 <= x274 <= 1
 0 <= x275 <= 1
 0 <= x276 <= 1
 0 <= x277 <= 1
 0 <= x278 <= 1
 0 <= x279 <= 1
 0 <= x280 <= 1
 0 <= x281 <= 1
 0 <= x282 <= 1
 0 <= x283 <= 1
 0 <= x284 <= 1
 0 <= x285 <= 1
 0 <= x286 <= 1
 0 <= x287 <= 1
 0 <= x288 <= 1
 0 <= x289 <= 1
 0 <= x290 <= 1
 0 <= x291 <= 1
 0 <= x292 <= 1
 0 <= x293 <= 1
 0 <= x294 <= 1
 0 <= x295 <= 1
 0 <= x296 <= 1
 0 <= x297 <= 1
 0 <= x298 <= 1
 0 <= x299 <= 1
 0 <= x300 <= 1
 0 <= x301 <= 1
 0 <= x302 <= 1
 0 <= x303 <= 1
 0 <= x304 <= 1
 0 <= x305 <= 1
 0 <= x306 <= 1
 0 <= x307 <= 1
 0 <= x308 <= 1
 0 <= x309 <= 1
 0 <= x310 <= 1
 0 <= x311 <= 1
 0 <= x312 <= 1
 0 <= x313 <= 1
 0 <= x314 <= 1
 0 <= x315 <= 1
 0 <= x316 <= 1
 0 <= x317 <= 1
 0 <= x318 <= 1
 0 <= x319 <= 1
 0 <= x320 <= 1
 0 <= x321 <= 1
 0 <= x322 <= 1
 0 <= x323 <= 1
 0 <= x324 <= 1
 0 <= x325 <= 1
 0 <= x326 <= 1
 0 <= x327 <= 1
 0 <= x328 <= 1
 0 <= x329 <= 1
 0 <= x330 <= 1
 0 <= x331 <= 1
 0 <= x332 <= 1
 0 <= x333 <= 1
 0 <= x334 <= 1
 0 <= x335 <= 1
 0 <= x336 <= 1
 0 <= x337 <= 1
 0 <= x338 <= 1
 0 <= x339 <= 1
 0 <= x340 <= 1
 0 <= x341 <= 1
 0 <= x342 <= 1
 0 <= x343 <= 1
 0 <= x344 <= 1
 0 <= x345 <= 1
 0 <= x346 <= 1
 0 <= x347 <= 1
 0 <= x348 <= 1
 0 <= x349 <= 1
 0 <= x350 <= 1
 0 <= x351 <= 1
 0 <= x352 <= 1
 0 <= x353 <= 1
 0 <= x354 <= 1
 0 <= x355 <= 1
 0 <= x356 <= 1
 0 <= x357 <= 1
 0 <= x358 <= 1
 0 <= x359 <= 1
 0 <= x360 <= 1
 0 <= x361 <= 1
 0 <= x362 <= 1
 0 <= x363 <= 1
 0 <= x364 <= 1
 0 <= x365 <= 1
 0 <= x366 <= 1
 0 <= x367 <= 1
 0 <= x368 <= 1
 0 <= x369 <= 1
 0 <= x370 <= 1
 0 <= x371 <= 1
 0 <= x372 <= 1
 0 <= x373 <= 1
 0 <= x374 <= 1
 0 <= x375 <= 1
 0 <= x376 <= 1
 0 <= x377 <= 1
 0 <= x378 <= 1
 0 <= x379 <= 1
 0 <= x380 <= 1
 0 <= x381 <= 1
 0 <= x382 <= 1
 0 <= x383 <= 1
 0 <= x384 <= 1
 0 <= x385 <= 1
 0 <= x386 <= 1
 0 <= x387 <= 1
 0 <= x388 <= 1
 0 <= x389 <= 1
 0 <= x390 <= 1
 0 <= x391 <= 1
 0 <= x392 <= 1
 0 <= x393 <= 1
 0 <= x394 <= 1
 0 <= x395 <= 1
 0 <= x396 <= 1
 0 <= x397 <= 1
 0 <= x398 <= 1
 0 <= x399 <= 1
 0 <= x400 <= 1
 0 <= x401 <= 1
 0 <= x402 <= 1
 0 <= x403 <= 1
 0 <= x404 <= 1
 0 <= x405 <= 1
 0 <= x406 <= 1
 0 <= x407 <= 1
 0 <= x408 <= 1
 0 <= x409 <= 1
 0 <= x410 <= 1
 0 <= x411 <= 1
 0 <= x412 <= 1
 0 <= x413 <= 1
 0 <= x414 <= 1
 0 <= x415 <= 1
 0 <= x416 <= 1
 0 <= x417 <= 1
 0 <= x418 <= 1
 0 <= x419 <= 1
 0 <= x420 <= 1
 0 <= x421 <= 1
 0 <= x422 <= 1
 0 <= x423 <= 1
 0 <= x424 <= 1
 0 <= x425 <= 1
 0 <= x426 <= 1
 0 <= x427 <= 1
 0 <= x428 <= 1
 0 <= x429 <= 1
 0 <= x430 <= 1
 0 <= x431 <= 1
 0 <= x432 <= 1
 0 <= x433 <= 1
 0 <= x434 <= 1
 0 <= x435 <= 1
 0 <= x436 <= 1
 0 <= x437 <= 1
 0 <= x438 <= 1
 0 <= x439 <= 1
 0 <= x440 <= 1
 0 <= x441 <= 1
 0 <= x442 <= 1
 0 <= x443 <= 1
 0 <= x444 <= 1
 0 <= x445 <= 1
 0 <= x446 <= 1
 0 <= x447 <= 1
 0 <= x448 <= 1
 0 <= x449 <= 1
 0 <= x450 <= 1
 0 <= x451 <= 1
 0 <= x452 <= 1
 0 <= x453 <= 1
 0 <= x454 <= 1
 0 <= x455 <= 1
 0 <= x456 <= 1
 0 <= x457 <= 1
 0 <= x458 <= 1
 0 <= x459 <= 1
 0 <= x460 <= 1
 0 <= x461 <= 1
 0 <= x462 <= 1
 0 <= x463 <= 1
 0 <= x464 <= 1
 0 <= x465 <= 1
 0 <= x466 <= 1
 0 <= x467 <= 1
 0 <= x468 <= 1
 0 <= x469 <= 1
 0 <= x470 <= 1
 0 <= x471 <= 1
 0 <= x472 <= 1
 0 <= x473 <= 1
 0 <= x474 <= 1
 0 <= x475 <= 1
 0 <= x476 <= 1
 0 <= x477 <= 1
 0 <= x478 <= 1
 0 <= x479 <= 1
 0 <= x480 <= 1
 0 <= x481 <= 1
 0 <= x482 <= 1
 0 <= x483 <= 1
 0 <= x484 <= 1
 0 <= x485 <= 1
 0 <= x486 <= 1
 0 <= x487 <= 1
 0 <= x488 <= 1
 0 <= x489 <= 1
 0 <= x490 <= 1
 0 <= x491 <= 1
 0 <= x492 <= 1
 0 <= x493 <= 1
 0 <= x494 <= 1
 0 <= x495 <= 1
 0 <= x496 <= 1
 0 <= x497 <= 1
 0 <= x498 <= 1
 0 <= x499 <= 1
 0 <= x500 <= 1
 0 <= x501 <= 1
 0 <= x502 <= 1
 0 <= x503 <= 1
 0 <= x504 <= 1
 0 <= x505 <= 1
 0 <= x506 <= 1
 0 <= x507 <= 1
 0 <= x508 <= 1
 0 <= x509 <= 1
 0 <= x510 <= 1
 0 <= x511 <= 1
 0 <= x512 <= 1
 0 <= x513 <= 1
 0 <= x514 <= 1
 0 <= x515 <= 1
 0 <= x516 <= 1
 0 <= x517 <= 1
 0 <= x518 <= 1
 0 <= x519 <= 1
 0 <= x520 <= 1
 0 <= x521 <= 1
 0 <= x522 <= 1
 0 <= x523 <= 1
 0 <= x524 <= 1
 0 <= x525 <= 1
 0 <= x526 <= 1
 0 <= x527 <= 1
 0 <= x528 <= 1
 0 <= x529 <= 1
 0 <= x530 <= 1
 0 <= x531 <= 1
 0 <= x532 <= 1
 0 <= x533 <= 1
 0 <= x534 <= 1
 0 <= x535 <= 1
 0 <= x536 <= 1
 0 <= x537 <= 1
 0 <= x538 <= 1
 0 <= x539 <= 1
 0 <= x540 <= 1
 0 <= x541 <= 1
 0 <= x542 <= 1
 0 <= x543 <= 1
 0 <= x544 <= 1
 0 <= x545 <= 1
 0 <= x546 <= 1
 0 <= x547 <= 1
 0 <= x548 <= 1
 0 <= x549 <= 1
 0 <= x550 <= 1
Binaries
 x501  x502  x503  x504  x505  x506  x507  x508  x509  x510  x511  x512  x513 
 x514  x515  x516  x517  x518  x519  x520  x521  x522  x523  x524  x525  x526 
 x527  x528  x529  x530  x531  x532  x533  x534  x535  x536  x537  x538  x539 
 x540  x541  x542  x543  x544  x545  x546  x547  x548  x549  x550 
End
